(set-logic LIA)
(declare-fun coord_x0 () Int)
(declare-fun coord_x1 () Int)
(declare-fun coord_x2 () Int)
(declare-fun coord_x3 () Int)
(declare-fun coord_x4 () Int)
(declare-fun coord_x5 () Int)
(declare-fun coord_x6 () Int)
(declare-fun coord_x7 () Int)
(declare-fun coord_x8 () Int)
(declare-fun coord_x9 () Int)
(declare-fun coord_x10 () Int)
(declare-fun coord_x11 () Int)
(declare-fun coord_x12 () Int)
(declare-fun coord_x13 () Int)
(declare-fun coord_x14 () Int)
(declare-fun coord_x15 () Int)
(declare-fun coord_y0 () Int)
(declare-fun coord_y1 () Int)
(declare-fun coord_y2 () Int)
(declare-fun coord_y3 () Int)
(declare-fun coord_y4 () Int)
(declare-fun coord_y5 () Int)
(declare-fun coord_y6 () Int)
(declare-fun coord_y7 () Int)
(declare-fun coord_y8 () Int)
(declare-fun coord_y9 () Int)
(declare-fun coord_y10 () Int)
(declare-fun coord_y11 () Int)
(declare-fun coord_y12 () Int)
(declare-fun coord_y13 () Int)
(declare-fun coord_y14 () Int)
(declare-fun coord_y15 () Int)
(declare-fun l () Int)
(assert (and (>= coord_x0 0) (<= coord_x0 15)))
(assert (and (>= coord_x1 0) (<= coord_x1 15)))
(assert (and (>= coord_x2 0) (<= coord_x2 15)))
(assert (and (>= coord_x3 0) (<= coord_x3 15)))
(assert (and (>= coord_x4 0) (<= coord_x4 15)))
(assert (and (>= coord_x5 0) (<= coord_x5 15)))
(assert (and (>= coord_x6 0) (<= coord_x6 15)))
(assert (and (>= coord_x7 0) (<= coord_x7 15)))
(assert (and (>= coord_x8 0) (<= coord_x8 15)))
(assert (and (>= coord_x9 0) (<= coord_x9 15)))
(assert (and (>= coord_x10 0) (<= coord_x10 15)))
(assert (and (>= coord_x11 0) (<= coord_x11 15)))
(assert (and (>= coord_x12 0) (<= coord_x12 15)))
(assert (and (>= coord_x13 0) (<= coord_x13 15)))
(assert (and (>= coord_x14 0) (<= coord_x14 15)))
(assert (and (>= coord_x15 0) (<= coord_x15 15)))
(assert (and (>= coord_y0 0) (<= coord_y0 87)))
(assert (and (>= coord_y1 0) (<= coord_y1 87)))
(assert (and (>= coord_y2 0) (<= coord_y2 87)))
(assert (and (>= coord_y3 0) (<= coord_y3 87)))
(assert (and (>= coord_y4 0) (<= coord_y4 87)))
(assert (and (>= coord_y5 0) (<= coord_y5 87)))
(assert (and (>= coord_y6 0) (<= coord_y6 87)))
(assert (and (>= coord_y7 0) (<= coord_y7 87)))
(assert (and (>= coord_y8 0) (<= coord_y8 87)))
(assert (and (>= coord_y9 0) (<= coord_y9 87)))
(assert (and (>= coord_y10 0) (<= coord_y10 87)))
(assert (and (>= coord_y11 0) (<= coord_y11 87)))
(assert (and (>= coord_y12 0) (<= coord_y12 87)))
(assert (and (>= coord_y13 0) (<= coord_y13 87)))
(assert (and (>= coord_y14 0) (<= coord_y14 87)))
(assert (and (>= coord_y15 0) (<= coord_y15 87)))
(assert (and (>= l 18) (<= l 90)))
(assert (or (<= (+ coord_x0 3) coord_x1) (<= (+ coord_y0 3) coord_y1) (>= (- coord_x0 3) coord_x1) (>= (- coord_y0 4) coord_y1)))
(assert (or (<= (+ coord_x0 3) coord_x2) (<= (+ coord_y0 3) coord_y2) (>= (- coord_x0 3) coord_x2) (>= (- coord_y0 5) coord_y2)))
(assert (or (<= (+ coord_x0 3) coord_x3) (<= (+ coord_y0 3) coord_y3) (>= (- coord_x0 3) coord_x3) (>= (- coord_y0 6) coord_y3)))
(assert (or (<= (+ coord_x0 3) coord_x4) (<= (+ coord_y0 3) coord_y4) (>= (- coord_x0 3) coord_x4) (>= (- coord_y0 7) coord_y4)))
(assert (or (<= (+ coord_x0 3) coord_x5) (<= (+ coord_y0 3) coord_y5) (>= (- coord_x0 3) coord_x5) (>= (- coord_y0 8) coord_y5)))
(assert (or (<= (+ coord_x0 3) coord_x6) (<= (+ coord_y0 3) coord_y6) (>= (- coord_x0 3) coord_x6) (>= (- coord_y0 10) coord_y6)))
(assert (or (<= (+ coord_x0 3) coord_x7) (<= (+ coord_y0 3) coord_y7) (>= (- coord_x0 3) coord_x7) (>= (- coord_y0 11) coord_y7)))
(assert (or (<= (+ coord_x0 3) coord_x8) (<= (+ coord_y0 3) coord_y8) (>= (- coord_x0 4) coord_x8) (>= (- coord_y0 3) coord_y8)))
(assert (or (<= (+ coord_x0 3) coord_x9) (<= (+ coord_y0 3) coord_y9) (>= (- coord_x0 4) coord_x9) (>= (- coord_y0 4) coord_y9)))
(assert (or (<= (+ coord_x0 3) coord_x10) (<= (+ coord_y0 3) coord_y10) (>= (- coord_x0 4) coord_x10) (>= (- coord_y0 5) coord_y10)))
(assert (or (<= (+ coord_x0 3) coord_x11) (<= (+ coord_y0 3) coord_y11) (>= (- coord_x0 4) coord_x11) (>= (- coord_y0 6) coord_y11)))
(assert (or (<= (+ coord_x0 3) coord_x12) (<= (+ coord_y0 3) coord_y12) (>= (- coord_x0 5) coord_x12) (>= (- coord_y0 3) coord_y12)))
(assert (or (<= (+ coord_x0 3) coord_x13) (<= (+ coord_y0 3) coord_y13) (>= (- coord_x0 5) coord_x13) (>= (- coord_y0 4) coord_y13)))
(assert (or (<= (+ coord_x0 3) coord_x14) (<= (+ coord_y0 3) coord_y14) (>= (- coord_x0 5) coord_x14) (>= (- coord_y0 5) coord_y14)))
(assert (or (<= (+ coord_x0 3) coord_x15) (<= (+ coord_y0 3) coord_y15) (>= (- coord_x0 5) coord_x15) (>= (- coord_y0 6) coord_y15)))
(assert (or (<= (+ coord_x1 3) coord_x2) (<= (+ coord_y1 4) coord_y2) (>= (- coord_x1 3) coord_x2) (>= (- coord_y1 5) coord_y2)))
(assert (or (<= (+ coord_x1 3) coord_x3) (<= (+ coord_y1 4) coord_y3) (>= (- coord_x1 3) coord_x3) (>= (- coord_y1 6) coord_y3)))
(assert (or (<= (+ coord_x1 3) coord_x4) (<= (+ coord_y1 4) coord_y4) (>= (- coord_x1 3) coord_x4) (>= (- coord_y1 7) coord_y4)))
(assert (or (<= (+ coord_x1 3) coord_x5) (<= (+ coord_y1 4) coord_y5) (>= (- coord_x1 3) coord_x5) (>= (- coord_y1 8) coord_y5)))
(assert (or (<= (+ coord_x1 3) coord_x6) (<= (+ coord_y1 4) coord_y6) (>= (- coord_x1 3) coord_x6) (>= (- coord_y1 10) coord_y6)))
(assert (or (<= (+ coord_x1 3) coord_x7) (<= (+ coord_y1 4) coord_y7) (>= (- coord_x1 3) coord_x7) (>= (- coord_y1 11) coord_y7)))
(assert (or (<= (+ coord_x1 3) coord_x8) (<= (+ coord_y1 4) coord_y8) (>= (- coord_x1 4) coord_x8) (>= (- coord_y1 3) coord_y8)))
(assert (or (<= (+ coord_x1 3) coord_x9) (<= (+ coord_y1 4) coord_y9) (>= (- coord_x1 4) coord_x9) (>= (- coord_y1 4) coord_y9)))
(assert (or (<= (+ coord_x1 3) coord_x10) (<= (+ coord_y1 4) coord_y10) (>= (- coord_x1 4) coord_x10) (>= (- coord_y1 5) coord_y10)))
(assert (or (<= (+ coord_x1 3) coord_x11) (<= (+ coord_y1 4) coord_y11) (>= (- coord_x1 4) coord_x11) (>= (- coord_y1 6) coord_y11)))
(assert (or (<= (+ coord_x1 3) coord_x12) (<= (+ coord_y1 4) coord_y12) (>= (- coord_x1 5) coord_x12) (>= (- coord_y1 3) coord_y12)))
(assert (or (<= (+ coord_x1 3) coord_x13) (<= (+ coord_y1 4) coord_y13) (>= (- coord_x1 5) coord_x13) (>= (- coord_y1 4) coord_y13)))
(assert (or (<= (+ coord_x1 3) coord_x14) (<= (+ coord_y1 4) coord_y14) (>= (- coord_x1 5) coord_x14) (>= (- coord_y1 5) coord_y14)))
(assert (or (<= (+ coord_x1 3) coord_x15) (<= (+ coord_y1 4) coord_y15) (>= (- coord_x1 5) coord_x15) (>= (- coord_y1 6) coord_y15)))
(assert (or (<= (+ coord_x2 3) coord_x3) (<= (+ coord_y2 5) coord_y3) (>= (- coord_x2 3) coord_x3) (>= (- coord_y2 6) coord_y3)))
(assert (or (<= (+ coord_x2 3) coord_x4) (<= (+ coord_y2 5) coord_y4) (>= (- coord_x2 3) coord_x4) (>= (- coord_y2 7) coord_y4)))
(assert (or (<= (+ coord_x2 3) coord_x5) (<= (+ coord_y2 5) coord_y5) (>= (- coord_x2 3) coord_x5) (>= (- coord_y2 8) coord_y5)))
(assert (or (<= (+ coord_x2 3) coord_x6) (<= (+ coord_y2 5) coord_y6) (>= (- coord_x2 3) coord_x6) (>= (- coord_y2 10) coord_y6)))
(assert (or (<= (+ coord_x2 3) coord_x7) (<= (+ coord_y2 5) coord_y7) (>= (- coord_x2 3) coord_x7) (>= (- coord_y2 11) coord_y7)))
(assert (or (<= (+ coord_x2 3) coord_x8) (<= (+ coord_y2 5) coord_y8) (>= (- coord_x2 4) coord_x8) (>= (- coord_y2 3) coord_y8)))
(assert (or (<= (+ coord_x2 3) coord_x9) (<= (+ coord_y2 5) coord_y9) (>= (- coord_x2 4) coord_x9) (>= (- coord_y2 4) coord_y9)))
(assert (or (<= (+ coord_x2 3) coord_x10) (<= (+ coord_y2 5) coord_y10) (>= (- coord_x2 4) coord_x10) (>= (- coord_y2 5) coord_y10)))
(assert (or (<= (+ coord_x2 3) coord_x11) (<= (+ coord_y2 5) coord_y11) (>= (- coord_x2 4) coord_x11) (>= (- coord_y2 6) coord_y11)))
(assert (or (<= (+ coord_x2 3) coord_x12) (<= (+ coord_y2 5) coord_y12) (>= (- coord_x2 5) coord_x12) (>= (- coord_y2 3) coord_y12)))
(assert (or (<= (+ coord_x2 3) coord_x13) (<= (+ coord_y2 5) coord_y13) (>= (- coord_x2 5) coord_x13) (>= (- coord_y2 4) coord_y13)))
(assert (or (<= (+ coord_x2 3) coord_x14) (<= (+ coord_y2 5) coord_y14) (>= (- coord_x2 5) coord_x14) (>= (- coord_y2 5) coord_y14)))
(assert (or (<= (+ coord_x2 3) coord_x15) (<= (+ coord_y2 5) coord_y15) (>= (- coord_x2 5) coord_x15) (>= (- coord_y2 6) coord_y15)))
(assert (or (<= (+ coord_x3 3) coord_x4) (<= (+ coord_y3 6) coord_y4) (>= (- coord_x3 3) coord_x4) (>= (- coord_y3 7) coord_y4)))
(assert (or (<= (+ coord_x3 3) coord_x5) (<= (+ coord_y3 6) coord_y5) (>= (- coord_x3 3) coord_x5) (>= (- coord_y3 8) coord_y5)))
(assert (or (<= (+ coord_x3 3) coord_x6) (<= (+ coord_y3 6) coord_y6) (>= (- coord_x3 3) coord_x6) (>= (- coord_y3 10) coord_y6)))
(assert (or (<= (+ coord_x3 3) coord_x7) (<= (+ coord_y3 6) coord_y7) (>= (- coord_x3 3) coord_x7) (>= (- coord_y3 11) coord_y7)))
(assert (or (<= (+ coord_x3 3) coord_x8) (<= (+ coord_y3 6) coord_y8) (>= (- coord_x3 4) coord_x8) (>= (- coord_y3 3) coord_y8)))
(assert (or (<= (+ coord_x3 3) coord_x9) (<= (+ coord_y3 6) coord_y9) (>= (- coord_x3 4) coord_x9) (>= (- coord_y3 4) coord_y9)))
(assert (or (<= (+ coord_x3 3) coord_x10) (<= (+ coord_y3 6) coord_y10) (>= (- coord_x3 4) coord_x10) (>= (- coord_y3 5) coord_y10)))
(assert (or (<= (+ coord_x3 3) coord_x11) (<= (+ coord_y3 6) coord_y11) (>= (- coord_x3 4) coord_x11) (>= (- coord_y3 6) coord_y11)))
(assert (or (<= (+ coord_x3 3) coord_x12) (<= (+ coord_y3 6) coord_y12) (>= (- coord_x3 5) coord_x12) (>= (- coord_y3 3) coord_y12)))
(assert (or (<= (+ coord_x3 3) coord_x13) (<= (+ coord_y3 6) coord_y13) (>= (- coord_x3 5) coord_x13) (>= (- coord_y3 4) coord_y13)))
(assert (or (<= (+ coord_x3 3) coord_x14) (<= (+ coord_y3 6) coord_y14) (>= (- coord_x3 5) coord_x14) (>= (- coord_y3 5) coord_y14)))
(assert (or (<= (+ coord_x3 3) coord_x15) (<= (+ coord_y3 6) coord_y15) (>= (- coord_x3 5) coord_x15) (>= (- coord_y3 6) coord_y15)))
(assert (or (<= (+ coord_x4 3) coord_x5) (<= (+ coord_y4 7) coord_y5) (>= (- coord_x4 3) coord_x5) (>= (- coord_y4 8) coord_y5)))
(assert (or (<= (+ coord_x4 3) coord_x6) (<= (+ coord_y4 7) coord_y6) (>= (- coord_x4 3) coord_x6) (>= (- coord_y4 10) coord_y6)))
(assert (or (<= (+ coord_x4 3) coord_x7) (<= (+ coord_y4 7) coord_y7) (>= (- coord_x4 3) coord_x7) (>= (- coord_y4 11) coord_y7)))
(assert (or (<= (+ coord_x4 3) coord_x8) (<= (+ coord_y4 7) coord_y8) (>= (- coord_x4 4) coord_x8) (>= (- coord_y4 3) coord_y8)))
(assert (or (<= (+ coord_x4 3) coord_x9) (<= (+ coord_y4 7) coord_y9) (>= (- coord_x4 4) coord_x9) (>= (- coord_y4 4) coord_y9)))
(assert (or (<= (+ coord_x4 3) coord_x10) (<= (+ coord_y4 7) coord_y10) (>= (- coord_x4 4) coord_x10) (>= (- coord_y4 5) coord_y10)))
(assert (or (<= (+ coord_x4 3) coord_x11) (<= (+ coord_y4 7) coord_y11) (>= (- coord_x4 4) coord_x11) (>= (- coord_y4 6) coord_y11)))
(assert (or (<= (+ coord_x4 3) coord_x12) (<= (+ coord_y4 7) coord_y12) (>= (- coord_x4 5) coord_x12) (>= (- coord_y4 3) coord_y12)))
(assert (or (<= (+ coord_x4 3) coord_x13) (<= (+ coord_y4 7) coord_y13) (>= (- coord_x4 5) coord_x13) (>= (- coord_y4 4) coord_y13)))
(assert (or (<= (+ coord_x4 3) coord_x14) (<= (+ coord_y4 7) coord_y14) (>= (- coord_x4 5) coord_x14) (>= (- coord_y4 5) coord_y14)))
(assert (or (<= (+ coord_x4 3) coord_x15) (<= (+ coord_y4 7) coord_y15) (>= (- coord_x4 5) coord_x15) (>= (- coord_y4 6) coord_y15)))
(assert (or (<= (+ coord_x5 3) coord_x6) (<= (+ coord_y5 8) coord_y6) (>= (- coord_x5 3) coord_x6) (>= (- coord_y5 10) coord_y6)))
(assert (or (<= (+ coord_x5 3) coord_x7) (<= (+ coord_y5 8) coord_y7) (>= (- coord_x5 3) coord_x7) (>= (- coord_y5 11) coord_y7)))
(assert (or (<= (+ coord_x5 3) coord_x8) (<= (+ coord_y5 8) coord_y8) (>= (- coord_x5 4) coord_x8) (>= (- coord_y5 3) coord_y8)))
(assert (or (<= (+ coord_x5 3) coord_x9) (<= (+ coord_y5 8) coord_y9) (>= (- coord_x5 4) coord_x9) (>= (- coord_y5 4) coord_y9)))
(assert (or (<= (+ coord_x5 3) coord_x10) (<= (+ coord_y5 8) coord_y10) (>= (- coord_x5 4) coord_x10) (>= (- coord_y5 5) coord_y10)))
(assert (or (<= (+ coord_x5 3) coord_x11) (<= (+ coord_y5 8) coord_y11) (>= (- coord_x5 4) coord_x11) (>= (- coord_y5 6) coord_y11)))
(assert (or (<= (+ coord_x5 3) coord_x12) (<= (+ coord_y5 8) coord_y12) (>= (- coord_x5 5) coord_x12) (>= (- coord_y5 3) coord_y12)))
(assert (or (<= (+ coord_x5 3) coord_x13) (<= (+ coord_y5 8) coord_y13) (>= (- coord_x5 5) coord_x13) (>= (- coord_y5 4) coord_y13)))
(assert (or (<= (+ coord_x5 3) coord_x14) (<= (+ coord_y5 8) coord_y14) (>= (- coord_x5 5) coord_x14) (>= (- coord_y5 5) coord_y14)))
(assert (or (<= (+ coord_x5 3) coord_x15) (<= (+ coord_y5 8) coord_y15) (>= (- coord_x5 5) coord_x15) (>= (- coord_y5 6) coord_y15)))
(assert (or (<= (+ coord_x6 3) coord_x7) (<= (+ coord_y6 10) coord_y7) (>= (- coord_x6 3) coord_x7) (>= (- coord_y6 11) coord_y7)))
(assert (or (<= (+ coord_x6 3) coord_x8) (<= (+ coord_y6 10) coord_y8) (>= (- coord_x6 4) coord_x8) (>= (- coord_y6 3) coord_y8)))
(assert (or (<= (+ coord_x6 3) coord_x9) (<= (+ coord_y6 10) coord_y9) (>= (- coord_x6 4) coord_x9) (>= (- coord_y6 4) coord_y9)))
(assert (or (<= (+ coord_x6 3) coord_x10) (<= (+ coord_y6 10) coord_y10) (>= (- coord_x6 4) coord_x10) (>= (- coord_y6 5) coord_y10)))
(assert (or (<= (+ coord_x6 3) coord_x11) (<= (+ coord_y6 10) coord_y11) (>= (- coord_x6 4) coord_x11) (>= (- coord_y6 6) coord_y11)))
(assert (or (<= (+ coord_x6 3) coord_x12) (<= (+ coord_y6 10) coord_y12) (>= (- coord_x6 5) coord_x12) (>= (- coord_y6 3) coord_y12)))
(assert (or (<= (+ coord_x6 3) coord_x13) (<= (+ coord_y6 10) coord_y13) (>= (- coord_x6 5) coord_x13) (>= (- coord_y6 4) coord_y13)))
(assert (or (<= (+ coord_x6 3) coord_x14) (<= (+ coord_y6 10) coord_y14) (>= (- coord_x6 5) coord_x14) (>= (- coord_y6 5) coord_y14)))
(assert (or (<= (+ coord_x6 3) coord_x15) (<= (+ coord_y6 10) coord_y15) (>= (- coord_x6 5) coord_x15) (>= (- coord_y6 6) coord_y15)))
(assert (or (<= (+ coord_x7 3) coord_x8) (<= (+ coord_y7 11) coord_y8) (>= (- coord_x7 4) coord_x8) (>= (- coord_y7 3) coord_y8)))
(assert (or (<= (+ coord_x7 3) coord_x9) (<= (+ coord_y7 11) coord_y9) (>= (- coord_x7 4) coord_x9) (>= (- coord_y7 4) coord_y9)))
(assert (or (<= (+ coord_x7 3) coord_x10) (<= (+ coord_y7 11) coord_y10) (>= (- coord_x7 4) coord_x10) (>= (- coord_y7 5) coord_y10)))
(assert (or (<= (+ coord_x7 3) coord_x11) (<= (+ coord_y7 11) coord_y11) (>= (- coord_x7 4) coord_x11) (>= (- coord_y7 6) coord_y11)))
(assert (or (<= (+ coord_x7 3) coord_x12) (<= (+ coord_y7 11) coord_y12) (>= (- coord_x7 5) coord_x12) (>= (- coord_y7 3) coord_y12)))
(assert (or (<= (+ coord_x7 3) coord_x13) (<= (+ coord_y7 11) coord_y13) (>= (- coord_x7 5) coord_x13) (>= (- coord_y7 4) coord_y13)))
(assert (or (<= (+ coord_x7 3) coord_x14) (<= (+ coord_y7 11) coord_y14) (>= (- coord_x7 5) coord_x14) (>= (- coord_y7 5) coord_y14)))
(assert (or (<= (+ coord_x7 3) coord_x15) (<= (+ coord_y7 11) coord_y15) (>= (- coord_x7 5) coord_x15) (>= (- coord_y7 6) coord_y15)))
(assert (or (<= (+ coord_x8 4) coord_x9) (<= (+ coord_y8 3) coord_y9) (>= (- coord_x8 4) coord_x9) (>= (- coord_y8 4) coord_y9)))
(assert (or (<= (+ coord_x8 4) coord_x10) (<= (+ coord_y8 3) coord_y10) (>= (- coord_x8 4) coord_x10) (>= (- coord_y8 5) coord_y10)))
(assert (or (<= (+ coord_x8 4) coord_x11) (<= (+ coord_y8 3) coord_y11) (>= (- coord_x8 4) coord_x11) (>= (- coord_y8 6) coord_y11)))
(assert (or (<= (+ coord_x8 4) coord_x12) (<= (+ coord_y8 3) coord_y12) (>= (- coord_x8 5) coord_x12) (>= (- coord_y8 3) coord_y12)))
(assert (or (<= (+ coord_x8 4) coord_x13) (<= (+ coord_y8 3) coord_y13) (>= (- coord_x8 5) coord_x13) (>= (- coord_y8 4) coord_y13)))
(assert (or (<= (+ coord_x8 4) coord_x14) (<= (+ coord_y8 3) coord_y14) (>= (- coord_x8 5) coord_x14) (>= (- coord_y8 5) coord_y14)))
(assert (or (<= (+ coord_x8 4) coord_x15) (<= (+ coord_y8 3) coord_y15) (>= (- coord_x8 5) coord_x15) (>= (- coord_y8 6) coord_y15)))
(assert (or (<= (+ coord_x9 4) coord_x10) (<= (+ coord_y9 4) coord_y10) (>= (- coord_x9 4) coord_x10) (>= (- coord_y9 5) coord_y10)))
(assert (or (<= (+ coord_x9 4) coord_x11) (<= (+ coord_y9 4) coord_y11) (>= (- coord_x9 4) coord_x11) (>= (- coord_y9 6) coord_y11)))
(assert (or (<= (+ coord_x9 4) coord_x12) (<= (+ coord_y9 4) coord_y12) (>= (- coord_x9 5) coord_x12) (>= (- coord_y9 3) coord_y12)))
(assert (or (<= (+ coord_x9 4) coord_x13) (<= (+ coord_y9 4) coord_y13) (>= (- coord_x9 5) coord_x13) (>= (- coord_y9 4) coord_y13)))
(assert (or (<= (+ coord_x9 4) coord_x14) (<= (+ coord_y9 4) coord_y14) (>= (- coord_x9 5) coord_x14) (>= (- coord_y9 5) coord_y14)))
(assert (or (<= (+ coord_x9 4) coord_x15) (<= (+ coord_y9 4) coord_y15) (>= (- coord_x9 5) coord_x15) (>= (- coord_y9 6) coord_y15)))
(assert (or (<= (+ coord_x10 4) coord_x11) (<= (+ coord_y10 5) coord_y11) (>= (- coord_x10 4) coord_x11) (>= (- coord_y10 6) coord_y11)))
(assert (or (<= (+ coord_x10 4) coord_x12) (<= (+ coord_y10 5) coord_y12) (>= (- coord_x10 5) coord_x12) (>= (- coord_y10 3) coord_y12)))
(assert (or (<= (+ coord_x10 4) coord_x13) (<= (+ coord_y10 5) coord_y13) (>= (- coord_x10 5) coord_x13) (>= (- coord_y10 4) coord_y13)))
(assert (or (<= (+ coord_x10 4) coord_x14) (<= (+ coord_y10 5) coord_y14) (>= (- coord_x10 5) coord_x14) (>= (- coord_y10 5) coord_y14)))
(assert (or (<= (+ coord_x10 4) coord_x15) (<= (+ coord_y10 5) coord_y15) (>= (- coord_x10 5) coord_x15) (>= (- coord_y10 6) coord_y15)))
(assert (or (<= (+ coord_x11 4) coord_x12) (<= (+ coord_y11 6) coord_y12) (>= (- coord_x11 5) coord_x12) (>= (- coord_y11 3) coord_y12)))
(assert (or (<= (+ coord_x11 4) coord_x13) (<= (+ coord_y11 6) coord_y13) (>= (- coord_x11 5) coord_x13) (>= (- coord_y11 4) coord_y13)))
(assert (or (<= (+ coord_x11 4) coord_x14) (<= (+ coord_y11 6) coord_y14) (>= (- coord_x11 5) coord_x14) (>= (- coord_y11 5) coord_y14)))
(assert (or (<= (+ coord_x11 4) coord_x15) (<= (+ coord_y11 6) coord_y15) (>= (- coord_x11 5) coord_x15) (>= (- coord_y11 6) coord_y15)))
(assert (or (<= (+ coord_x12 5) coord_x13) (<= (+ coord_y12 3) coord_y13) (>= (- coord_x12 5) coord_x13) (>= (- coord_y12 4) coord_y13)))
(assert (or (<= (+ coord_x12 5) coord_x14) (<= (+ coord_y12 3) coord_y14) (>= (- coord_x12 5) coord_x14) (>= (- coord_y12 5) coord_y14)))
(assert (or (<= (+ coord_x12 5) coord_x15) (<= (+ coord_y12 3) coord_y15) (>= (- coord_x12 5) coord_x15) (>= (- coord_y12 6) coord_y15)))
(assert (or (<= (+ coord_x13 5) coord_x14) (<= (+ coord_y13 4) coord_y14) (>= (- coord_x13 5) coord_x14) (>= (- coord_y13 5) coord_y14)))
(assert (or (<= (+ coord_x13 5) coord_x15) (<= (+ coord_y13 4) coord_y15) (>= (- coord_x13 5) coord_x15) (>= (- coord_y13 6) coord_y15)))
(assert (or (<= (+ coord_x14 5) coord_x15) (<= (+ coord_y14 5) coord_y15) (>= (- coord_x14 5) coord_x15) (>= (- coord_y14 6) coord_y15)))
(assert (and (<= (+ coord_x0 3) 18) (<= (+ coord_y0 3) l)))
(assert (and (<= (+ coord_x1 3) 18) (<= (+ coord_y1 4) l)))
(assert (and (<= (+ coord_x2 3) 18) (<= (+ coord_y2 5) l)))
(assert (and (<= (+ coord_x3 3) 18) (<= (+ coord_y3 6) l)))
(assert (and (<= (+ coord_x4 3) 18) (<= (+ coord_y4 7) l)))
(assert (and (<= (+ coord_x5 3) 18) (<= (+ coord_y5 8) l)))
(assert (and (<= (+ coord_x6 3) 18) (<= (+ coord_y6 10) l)))
(assert (and (<= (+ coord_x7 3) 18) (<= (+ coord_y7 11) l)))
(assert (and (<= (+ coord_x8 4) 18) (<= (+ coord_y8 3) l)))
(assert (and (<= (+ coord_x9 4) 18) (<= (+ coord_y9 4) l)))
(assert (and (<= (+ coord_x10 4) 18) (<= (+ coord_y10 5) l)))
(assert (and (<= (+ coord_x11 4) 18) (<= (+ coord_y11 6) l)))
(assert (and (<= (+ coord_x12 5) 18) (<= (+ coord_y12 3) l)))
(assert (and (<= (+ coord_x13 5) 18) (<= (+ coord_y13 4) l)))
(assert (and (<= (+ coord_x14 5) 18) (<= (+ coord_y14 5) l)))
(assert (and (<= (+ coord_x15 5) 18) (<= (+ coord_y15 6) l)))
(check-sat)
(get-model)
